20 40
-14 12 7
13 -19 3
-2 18 6
-18 15 -14
-15 -2 16
-13 -15 -1
-12 -3 5
-5 8 20
-19 -18 17
-15 20 -14
4 9 -14
20 8 -1
9 19 2
2 9 -6
20 5 -18
-19 3 -7
6 -3 19
17 -8 9
-1 -15 10
2 -6 9
10 -3 5
-16 -15 -12
10 5 12
-5 -19 13
-3 11 -10
2 -3 12
20 2 -4
-2 -3 19
-13 9 -6
3 -10 17
-17 -13 -4
-8 13 6
-10 16 -14
-15 -13 -5
-6 -14 -2
7 11 -9
15 -12 2
2 17 1
-20 5 1
11 -2 -3
